DIMACS_lns/graph-1000-916.col
p edge 1000 1796
e 2 468
e 2 542
e 2 792
e 3 510
e 3 69
e 3 918
e 4 129
e 4 680
e 4 401
e 4 615
e 4 362
e 4 656
e 4 602
e 4 860
e 5 695
e 5 933
e 5 353
e 5 368
e 5 991
e 5 987
e 5 102
e 6 374
e 6 440
e 6 173
e 6 17
e 6 582
e 7 268
e 7 840
e 7 92
e 7 765
e 7 284
e 8 531
e 8 566
e 8 168
e 8 846
e 9 227
e 9 109
e 9 599
e 9 837
e 9 446
e 11 69
e 11 211
e 11 220
e 11 547
e 13 690
e 13 88
e 13 881
e 13 26
e 13 632
e 13 731
e 14 462
e 14 316
e 14 822
e 15 940
e 15 652
e 15 302
e 15 376
e 15 928
e 16 918
e 16 864
e 16 687
e 16 27
e 17 835
e 17 698
e 17 703
e 17 572
e 17 51
e 18 701
e 18 651
e 18 255
e 18 765
e 19 784
e 19 605
e 19 357
e 20 365
e 20 551
e 20 495
e 20 318
e 21 806
e 21 960
e 21 977
e 22 467
e 22 251
e 22 559
e 22 98
e 22 741
e 22 720
e 22 489
e 22 198
e 23 771
e 23 589
e 23 309
e 23 399
e 23 872
e 24 719
e 24 64
e 24 989
e 24 287
e 24 652
e 26 683
e 26 491
e 26 882
e 27 784
e 27 169
e 27 928
e 27 927
e 29 774
e 29 399
e 29 790
e 29 750
e 29 883
e 31 711
e 31 398
e 31 334
e 31 86
e 31 39
e 31 489
e 33 563
e 33 526
e 33 792
e 33 126
e 33 180
e 38 601
e 38 253
e 38 825
e 38 515
e 38 163
e 38 489
e 38 695
e 39 183
e 39 627
e 39 118
e 40 847
e 40 101
e 40 715
e 40 761
e 41 292
e 41 457
e 41 630
e 41 741
e 41 515
e 42 966
e 42 539
e 42 281
e 43 81
e 43 314
e 43 905
e 43 652
e 43 991
e 44 601
e 44 954
e 44 717
e 45 402
e 45 743
e 45 537
e 45 143
e 46 75
e 46 962
e 46 712
e 46 328
e 48 788
e 48 205
e 48 487
e 48 399
e 48 523
e 48 997
e 49 404
e 49 461
e 49 241
e 50 625
e 50 707
e 50 486
e 50 282
e 50 570
e 51 99
e 51 721
e 51 938
e 51 315
e 51 311
e 52 189
e 52 987
e 52 115
e 52 511
e 52 75
e 52 63
e 53 727
e 53 255
e 53 917
e 53 894
e 53 941
e 53 446
e 53 546
e 54 903
e 54 913
e 54 969
e 54 132
e 54 306
e 55 814
e 55 166
e 55 173
e 55 295
e 55 868
e 55 253
e 55 486
e 55 801
e 56 933
e 56 528
e 56 87
e 56 214
e 57 151
e 57 784
e 57 703
e 57 367
e 58 215
e 58 728
e 58 763
e 59 104
e 59 350
e 59 841
e 59 589
e 60 195
e 60 814
e 60 183
e 60 663
e 60 219
e 60 980
e 63 809
e 63 165
e 63 473
e 63 316
e 63 128
e 64 118
e 64 547
e 64 338
e 64 335
e 64 833
e 64 462
e 64 704
e 65 271
e 65 838
e 65 822
e 65 629
e 65 568
e 65 992
e 65 166
e 68 703
e 68 954
e 68 636
e 68 185
e 69 286
e 70 550
e 70 77
e 70 679
e 70 212
e 70 857
e 70 782
e 71 355
e 71 591
e 71 809
e 73 904
e 73 894
e 73 999
e 74 509
e 74 946
e 74 880
e 74 107
e 74 766
e 75 729
e 75 445
e 75 705
e 75 638
e 76 224
e 76 763
e 76 220
e 77 605
e 77 367
e 77 992
e 77 156
e 77 177
e 79 471
e 79 881
e 79 655
e 79 677
e 79 227
e 80 446
e 80 405
e 80 824
e 80 808
e 81 539
e 81 876
e 81 558
e 81 238
e 81 504
e 82 103
e 82 360
e 82 123
e 82 826
e 82 167
e 82 652
e 82 209
e 82 835
e 83 169
e 83 710
e 83 425
e 83 852
e 83 860
e 83 695
e 83 483
e 83 725
e 84 427
e 84 325
e 84 291
e 85 100
e 85 849
e 85 147
e 85 735
e 85 512
e 85 363
e 86 541
e 86 737
e 86 615
e 86 800
e 86 157
e 87 175
e 87 937
e 88 987
e 88 737
e 89 206
e 89 458
e 89 543
e 91 577
e 91 762
e 91 835
e 91 195
e 92 326
e 92 182
e 92 111
e 92 406
e 92 186
e 94 602
e 94 515
e 94 109
e 94 643
e 94 474
e 94 784
e 96 473
e 96 215
e 96 310
e 96 240
e 96 598
e 98 244
e 98 958
e 98 451
e 99 745
e 99 414
e 99 913
e 100 379
e 100 314
e 100 848
e 100 216
e 101 186
e 101 785
e 101 844
e 101 667
e 101 368
e 101 264
e 101 490
e 102 782
e 102 403
e 102 759
e 102 158
e 102 501
e 102 898
e 103 623
e 103 574
e 103 575
e 103 830
e 103 292
e 103 669
e 104 511
e 104 832
e 104 818
e 104 486
e 104 951
e 107 807
e 107 357
e 107 292
e 107 121
e 108 371
e 108 687
e 108 138
e 108 440
e 109 299
e 109 643
e 109 922
e 110 183
e 110 139
e 110 440
e 110 541
e 110 445
e 111 861
e 111 384
e 111 535
e 111 943
e 112 460
e 112 901
e 112 754
e 113 651
e 113 801
e 113 439
e 113 889
e 115 427
e 115 807
e 115 788
e 115 734
e 115 966
e 115 627
e 116 864
e 116 704
e 116 650
e 117 359
e 117 357
e 117 228
e 117 311
e 117 370
e 117 290
e 118 465
e 118 330
e 120 338
e 120 487
e 120 711
e 120 126
e 120 211
e 121 220
e 121 924
e 123 821
e 123 842
e 124 623
e 124 767
e 124 688
e 124 887
e 125 969
e 125 384
e 125 452
e 125 697
e 126 587
e 126 1000
e 128 535
e 128 462
e 128 833
e 128 628
e 129 224
e 129 614
e 129 958
e 129 679
e 131 860
e 131 510
e 131 909
e 131 684
e 132 549
e 132 779
e 132 590
e 132 145
e 133 720
e 133 676
e 133 363
e 134 167
e 134 634
e 134 295
e 135 382
e 135 326
e 135 577
e 135 294
e 135 941
e 136 757
e 136 396
e 136 889
e 136 204
e 138 265
e 138 935
e 138 384
e 138 318
e 138 641
e 138 474
e 138 872
e 139 933
e 139 790
e 139 331
e 139 688
e 139 915
e 141 969
e 141 898
e 141 638
e 141 205
e 141 615
e 141 432
e 141 983
e 142 965
e 142 957
e 142 443
e 143 348
e 143 943
e 143 768
e 143 749
e 144 386
e 144 347
e 144 229
e 144 161
e 144 643
e 145 534
e 145 726
e 145 666
e 146 219
e 146 854
e 146 557
e 146 550
e 146 354
e 146 848
e 147 899
e 147 675
e 148 682
e 148 503
e 148 818
e 149 325
e 149 863
e 149 919
e 149 550
e 149 958
e 149 276
e 149 683
e 150 795
e 150 720
e 150 337
e 150 946
e 150 329
e 150 822
e 151 644
e 151 224
e 151 753
e 153 359
e 153 980
e 153 245
e 153 286
e 155 841
e 155 158
e 155 245
e 155 366
e 156 955
e 156 775
e 156 674
e 157 364
e 157 923
e 158 305
e 158 710
e 158 291
e 158 672
e 158 805
e 158 719
e 159 315
e 159 745
e 159 396
e 159 459
e 160 584
e 160 579
e 160 721
e 161 230
e 161 491
e 161 431
e 161 986
e 161 559
e 163 552
e 163 720
e 165 825
e 165 856
e 165 274
e 166 417
e 166 553
e 166 263
e 166 580
e 166 843
e 166 946
e 167 874
e 168 889
e 168 641
e 168 253
e 169 347
e 169 657
e 169 340
e 169 525
e 171 941
e 171 772
e 171 502
e 171 264
e 171 655
e 171 204
e 172 787
e 172 800
e 172 771
e 173 637
e 173 298
e 173 253
e 173 877
e 173 339
e 175 498
e 175 604
e 175 500
e 175 385
e 176 589
e 176 974
e 176 233
e 177 590
e 177 692
e 177 939
e 177 415
e 177 836
e 180 493
e 180 516
e 180 630
e 181 301
e 181 916
e 181 473
e 181 549
e 181 426
e 181 402
e 181 196
e 182 712
e 182 246
e 184 883
e 184 831
e 184 509
e 185 952
e 185 992
e 186 458
e 189 782
e 189 443
e 190 523
e 190 792
e 190 852
e 190 728
e 191 650
e 191 933
e 191 704
e 191 942
e 193 512
e 193 727
e 193 428
e 193 503
e 193 473
e 193 793
e 195 971
e 195 230
e 195 829
e 196 995
e 196 761
e 196 832
e 196 282
e 196 715
e 197 299
e 197 313
e 197 636
e 197 323
e 197 619
e 197 346
e 198 794
e 198 788
e 198 948
e 198 598
e 200 636
e 200 510
e 200 677
e 200 772
e 201 504
e 201 214
e 201 731
e 201 532
e 204 628
e 204 217
e 205 909
e 205 608
e 205 478
e 206 360
e 206 410
e 206 418
e 206 301
e 207 948
e 207 259
e 207 771
e 207 551
e 208 733
e 208 698
e 208 444
e 209 882
e 209 223
e 209 738
e 209 734
e 209 719
e 210 344
e 210 855
e 210 996
e 210 872
e 211 768
e 211 543
e 212 549
e 212 811
e 212 969
e 212 258
e 212 684
e 212 838
e 213 837
e 213 796
e 213 653
e 214 610
e 215 340
e 215 536
e 215 705
e 215 619
e 216 459
e 216 856
e 216 759
e 216 542
e 217 901
e 217 940
e 218 431
e 218 854
e 218 440
e 218 936
e 218 301
e 218 355
e 218 610
e 219 844
e 220 315
e 220 706
e 220 824
e 222 357
e 222 481
e 222 717
e 222 850
e 223 429
e 223 825
e 223 729
e 224 991
e 224 346
e 224 459
e 227 816
e 228 763
e 228 334
e 228 591
e 229 964
e 229 940
e 229 295
e 230 374
e 230 558
e 230 705
e 231 552
e 231 794
e 231 379
e 232 596
e 232 837
e 232 873
e 233 849
e 233 562
e 233 352
e 234 387
e 234 692
e 234 726
e 234 272
e 234 325
e 236 764
e 236 843
e 236 448
e 237 272
e 237 812
e 237 580
e 238 623
e 238 886
e 240 318
e 240 329
e 240 810
e 240 957
e 241 883
e 241 265
e 241 918
e 241 470
e 241 611
e 241 698
e 243 449
e 243 426
e 243 421
e 243 428
e 244 883
e 244 481
e 244 898
e 244 309
e 245 829
e 245 517
e 245 473
e 245 735
e 246 873
e 246 248
e 247 549
e 247 793
e 247 468
e 247 641
e 248 509
e 248 691
e 250 628
e 250 547
e 250 788
e 250 399
e 250 671
e 251 355
e 251 516
e 251 833
e 252 497
e 252 742
e 252 353
e 253 679
e 254 910
e 254 745
e 254 986
e 254 448
e 254 798
e 255 265
e 257 794
e 257 602
e 257 570
e 257 821
e 257 299
e 258 728
e 258 910
e 258 303
e 259 611
e 259 780
e 261 272
e 261 671
e 261 509
e 262 974
e 262 366
e 262 337
e 262 432
e 262 504
e 262 579
e 262 836
e 262 634
e 263 282
e 263 600
e 263 633
e 263 818
e 263 916
e 263 533
e 263 706
e 264 401
e 264 996
e 264 752
e 264 801
e 265 454
e 268 836
e 268 398
e 268 717
e 268 459
e 268 308
e 269 918
e 269 857
e 269 737
e 271 776
e 271 951
e 271 688
e 272 329
e 272 518
e 272 903
e 272 294
e 272 977
e 273 927
e 273 449
e 273 873
e 273 933
e 274 779
e 274 305
e 274 494
e 276 552
e 276 452
e 276 818
e 276 568
e 276 935
e 280 705
e 280 473
e 280 844
e 280 583
e 281 887
e 281 595
e 281 811
e 283 415
e 283 898
e 283 310
e 283 579
e 284 429
e 284 959
e 284 611
e 284 814
e 284 623
e 286 518
e 286 658
e 286 354
e 286 868
e 287 749
e 287 445
e 287 308
e 287 860
e 288 336
e 288 958
e 288 595
e 288 436
e 288 761
e 288 619
e 290 394
e 290 784
e 291 501
e 291 602
e 291 346
e 291 368
e 292 816
e 292 605
e 292 452
e 292 440
e 292 961
e 292 574
e 292 720
e 294 798
e 294 929
e 294 774
e 295 447
e 295 577
e 295 868
e 298 925
e 298 743
e 298 992
e 298 613
e 299 751
e 301 567
e 301 854
e 301 545
e 302 494
e 302 582
e 303 938
e 303 365
e 303 643
e 303 760
e 305 392
e 305 735
e 305 966
e 306 655
e 306 983
e 306 808
e 306 651
e 307 672
e 307 772
e 307 573
e 308 417
e 308 364
e 308 712
e 308 552
e 309 692
e 309 384
e 309 646
e 310 357
e 310 715
e 310 848
e 311 755
e 313 938
e 313 490
e 314 666
e 314 357
e 315 692
e 315 882
e 316 478
e 316 646
e 316 971
e 316 958
e 316 371
e 316 461
e 317 694
e 317 479
e 317 762
e 317 437
e 319 396
e 319 391
e 319 427
e 319 807
e 323 744
e 323 998
e 323 587
e 324 679
e 324 882
e 324 474
e 325 408
e 325 501
e 325 787
e 326 503
e 328 979
e 328 806
e 328 848
e 329 834
e 329 836
e 329 770
e 329 577
e 330 688
e 330 436
e 331 468
e 331 936
e 332 964
e 332 984
e 332 889
e 332 963
e 334 579
e 335 753
e 335 782
e 336 789
e 336 536
e 336 549
e 337 451
e 337 711
e 338 899
e 339 811
e 339 446
e 340 467
e 340 779
e 340 553
e 343 698
e 343 771
e 343 878
e 344 894
e 344 400
e 344 498
e 346 939
e 346 535
e 346 517
e 347 939
e 347 958
e 347 837
e 348 482
e 348 449
e 348 638
e 349 928
e 349 559
e 349 996
e 350 403
e 350 574
e 350 962
e 352 947
e 352 821
e 352 560
e 352 474
e 353 439
e 353 494
e 354 848
e 354 999
e 355 377
e 355 808
e 355 446
e 355 548
e 355 657
e 357 455
e 357 922
e 357 364
e 357 563
e 357 674
e 359 894
e 359 533
e 359 613
e 359 872
e 360 830
e 360 799
e 362 963
e 362 751
e 362 821
e 363 366
e 363 978
e 363 487
e 364 812
e 364 716
e 364 833
e 364 976
e 365 500
e 365 478
e 365 729
e 365 502
e 366 776
e 366 587
e 366 486
e 367 716
e 367 470
e 368 481
e 370 733
e 370 978
e 370 599
e 370 957
e 370 811
e 371 444
e 373 738
e 373 588
e 373 685
e 374 572
e 374 526
e 374 834
e 374 868
e 374 935
e 376 872
e 376 630
e 376 904
e 377 645
e 377 667
e 377 491
e 378 937
e 378 744
e 378 680
e 378 665
e 379 815
e 379 992
e 382 493
e 382 962
e 382 410
e 382 991
e 383 650
e 383 737
e 383 479
e 384 721
e 385 701
e 385 501
e 385 663
e 386 711
e 386 667
e 387 623
e 387 666
e 387 629
e 387 795
e 391 847
e 391 919
e 391 910
e 392 774
e 392 395
e 394 952
e 394 406
e 395 708
e 395 771
e 396 610
e 396 642
e 397 710
e 397 636
e 397 645
e 398 927
e 398 558
e 399 400
e 400 980
e 400 613
e 401 940
e 402 765
e 402 983
e 403 706
e 404 901
e 404 514
e 405 570
e 405 720
e 405 829
e 405 969
e 405 436
e 406 781
e 406 468
e 406 831
e 408 448
e 408 974
e 410 959
e 410 509
e 410 943
e 410 884
e 410 902
e 412 863
e 412 526
e 412 608
e 414 550
e 414 836
e 414 632
e 414 422
e 415 998
e 415 525
e 415 768
e 417 892
e 417 695
e 418 955
e 418 960
e 421 754
e 421 581
e 421 614
e 422 827
e 422 908
e 422 455
e 422 524
e 423 764
e 423 827
e 423 487
e 424 444
e 424 458
e 424 831
e 425 811
e 425 712
e 426 623
e 426 645
e 426 892
e 426 842
e 427 523
e 427 470
e 427 962
e 428 919
e 428 547
e 428 541
e 428 854
e 428 923
e 429 570
e 429 787
e 429 840
e 429 863
e 431 882
e 431 570
e 431 580
e 432 936
e 433 575
e 433 605
e 433 780
e 433 976
e 433 597
e 436 601
e 436 839
e 436 535
e 437 773
e 437 834
e 439 518
e 439 861
e 440 827
e 443 882
e 444 644
e 444 707
e 444 903
e 445 657
e 445 543
e 446 600
e 446 750
e 447 637
e 447 854
e 447 743
e 447 748
e 447 733
e 448 463
e 448 969
e 448 487
e 449 451
e 449 884
e 449 711
e 449 459
e 451 782
e 451 804
e 451 812
e 452 663
e 452 924
e 452 573
e 452 658
e 454 786
e 454 572
e 455 733
e 457 987
e 457 574
e 457 955
e 457 634
e 458 715
e 460 495
e 460 541
e 460 908
e 461 960
e 461 657
e 463 882
e 463 811
e 465 656
e 465 550
e 465 694
e 467 537
e 468 603
e 468 590
e 468 839
e 469 497
e 469 935
e 469 665
e 469 932
e 469 490
e 470 883
e 470 809
e 470 617
e 471 775
e 471 653
e 471 547
e 473 941
e 474 660
e 478 512
e 478 692
e 478 531
e 479 603
e 479 815
e 479 842
e 479 995
e 479 658
e 481 956
e 481 842
e 481 631
e 481 883
e 482 743
e 482 925
e 483 490
e 483 962
e 483 551
e 483 495
e 483 874
e 483 581
e 483 938
e 484 543
e 484 770
e 484 901
e 486 641
e 486 989
e 487 984
e 487 799
e 489 785
e 489 563
e 491 924
e 491 855
e 491 822
e 491 968
e 493 856
e 493 546
e 493 751
e 497 826
e 498 854
e 498 899
e 500 856
e 500 955
e 500 563
e 501 795
e 502 669
e 502 782
e 502 653
e 502 679
e 503 604
e 504 933
e 504 541
e 504 676
e 509 550
e 509 792
e 509 1000
e 511 682
e 511 597
e 512 905
e 512 890
e 514 977
e 514 562
e 516 701
e 517 743
e 517 903
e 518 963
e 518 692
e 518 810
e 518 784
e 523 706
e 524 989
e 524 857
e 524 804
e 525 961
e 525 784
e 525 653
e 526 995
e 526 818
e 526 952
e 526 771
e 528 806
e 528 923
e 531 694
e 532 853
e 532 922
e 533 853
e 533 824
e 533 734
e 533 781
e 534 983
e 534 535
e 535 776
e 535 603
e 536 980
e 536 541
e 536 542
e 537 943
e 537 784
e 539 767
e 539 810
e 539 564
e 541 566
e 541 801
e 542 910
e 543 774
e 545 672
e 545 660
e 545 692
e 545 682
e 545 633
e 546 766
e 547 987
e 547 958
e 547 874
e 548 584
e 548 799
e 548 854
e 549 760
e 549 957
e 549 878
e 550 993
e 550 853
e 551 731
e 551 814
e 551 652
e 551 733
e 552 688
e 552 669
e 552 629
e 552 645
e 553 675
e 553 609
e 556 972
e 556 941
e 556 874
e 556 755
e 557 633
e 557 666
e 557 905
e 558 617
e 558 605
e 558 812
e 559 610
e 559 951
e 560 785
e 560 653
e 562 768
e 562 722
e 563 666
e 563 711
e 564 919
e 564 625
e 566 608
e 566 825
e 567 826
e 567 646
e 567 669
e 568 718
e 568 883
e 570 731
e 570 717
e 570 867
e 570 772
e 571 642
e 571 679
e 571 837
e 573 822
e 573 887
e 574 604
e 575 737
e 575 685
e 575 843
e 579 762
e 579 591
e 579 887
e 579 918
e 579 824
e 580 596
e 581 998
e 581 947
e 582 980
e 583 916
e 583 602
e 583 956
e 584 947
e 584 870
e 584 880
e 587 742
e 587 690
e 587 784
e 588 826
e 588 690
e 588 800
e 589 605
e 591 872
e 595 938
e 596 830
e 597 801
e 597 629
e 597 737
e 597 763
e 597 983
e 598 682
e 598 918
e 598 936
e 599 846
e 599 968
e 600 995
e 602 796
e 602 608
e 602 781
e 603 912
e 603 957
e 603 625
e 603 979
e 604 884
e 605 830
e 605 963
e 608 850
e 608 787
e 609 741
e 609 964
e 609 853
e 611 948
e 612 780
e 612 687
e 612 908
e 613 935
e 613 993
e 614 979
e 615 701
e 617 697
e 619 972
e 619 799
e 620 846
e 620 847
e 620 877
e 620 863
e 620 830
e 625 883
e 625 800
e 627 940
e 628 799
e 628 945
e 628 679
e 629 729
e 630 861
e 631 655
e 631 909
e 631 782
e 632 665
e 632 663
e 632 812
e 633 928
e 633 722
e 634 874
e 637 749
e 637 890
e 637 755
e 638 868
e 638 904
e 642 889
e 642 733
e 643 692
e 644 986
e 644 787
e 645 766
e 645 861
e 645 650
e 650 728
e 650 902
e 651 674
e 652 993
e 653 951
e 653 827
e 653 883
e 654 929
e 654 976
e 654 760
e 655 837
e 655 795
e 656 815
e 657 773
e 658 715
e 660 721
e 663 910
e 663 874
e 663 890
e 665 699
e 665 938
e 666 878
e 667 960
e 667 767
e 669 680
e 671 977
e 671 853
e 672 684
e 672 808
e 674 717
e 674 718
e 675 904
e 676 977
e 677 961
e 677 937
e 677 996
e 677 814
e 679 851
e 679 932
e 679 745
e 680 886
e 680 1000
e 683 811
e 685 784
e 688 718
e 688 978
e 688 874
e 690 913
e 690 974
e 690 750
e 691 826
e 691 872
e 691 703
e 692 789
e 694 936
e 694 738
e 695 959
e 697 755
e 697 809
e 699 878
e 699 968
e 701 989
e 703 919
e 704 727
e 704 725
e 704 968
e 706 717
e 706 850
e 707 781
e 707 816
e 708 827
e 708 843
e 708 878
e 710 855
e 715 764
e 716 986
e 716 917
e 716 737
e 717 751
e 717 808
e 717 927
e 717 722
e 719 768
e 725 996
e 726 852
e 728 942
e 728 886
e 728 991
e 729 795
e 731 779
e 733 747
e 733 986
e 733 838
e 735 742
e 735 861
e 735 878
e 735 962
e 735 856
e 737 932
e 741 811
e 741 804
e 741 848
e 742 963
e 742 753
e 742 838
e 744 755
e 744 760
e 744 999
e 747 805
e 747 945
e 748 855
e 748 918
e 751 841
e 752 842
e 752 770
e 753 955
e 753 847
e 754 810
e 754 851
e 755 814
e 757 836
e 757 928
e 759 835
e 760 764
e 760 960
e 761 784
e 763 822
e 768 800
e 771 961
e 771 971
e 771 993
e 771 800
e 773 992
e 773 971
e 775 864
e 776 843
e 777 925
e 777 942
e 777 849
e 780 790
e 781 872
e 785 940
e 786 793
e 786 989
e 787 798
e 788 851
e 789 856
e 790 956
e 790 811
e 792 918
e 793 997
e 794 809
e 795 814
e 796 983
e 798 877
e 799 903
e 800 851
e 805 929
e 805 892
e 807 850
e 808 840
e 812 916
e 812 863
e 814 905
e 816 851
e 821 933
e 822 833
e 826 987
e 829 876
e 829 847
e 830 887
e 832 912
e 832 976
e 832 996
e 833 838
e 833 840
e 837 903
e 837 915
e 839 987
e 840 956
e 842 867
e 846 849
e 846 927
e 848 998
e 849 922
e 850 856
e 851 977
e 852 972
e 852 948
e 854 856
e 857 901
e 867 922
e 868 940
e 870 965
e 870 923
e 872 881
e 872 964
e 872 925
e 876 986
e 877 962
e 877 974
e 877 933
e 880 912
e 887 917
e 892 986
e 894 991
e 898 959
e 899 992
e 902 957
e 904 910
e 905 916
e 908 941
e 915 958
e 923 976
e 924 954
e 925 989
e 929 980
e 933 963
e 935 968
e 935 966
e 937 984
e 938 996
e 945 952
e 951 972
e 956 979
e 960 977
e 965 969
e 995 997
e 995 1000
