txt_Ins/graph-1000-916.txt
n 1000
e 1 467
e 1 541
e 1 791
e 2 509
e 2 68
e 2 917
e 3 128
e 3 679
e 3 400
e 3 614
e 3 361
e 3 655
e 3 601
e 3 859
e 4 694
e 4 932
e 4 352
e 4 367
e 4 990
e 4 986
e 4 101
e 5 373
e 5 439
e 5 172
e 5 16
e 5 581
e 6 267
e 6 839
e 6 91
e 6 764
e 6 283
e 7 530
e 7 565
e 7 167
e 7 845
e 8 226
e 8 108
e 8 598
e 8 836
e 8 445
e 10 68
e 10 210
e 10 219
e 10 546
e 12 689
e 12 87
e 12 880
e 12 25
e 12 631
e 12 730
e 13 461
e 13 315
e 13 821
e 14 939
e 14 651
e 14 301
e 14 375
e 14 927
e 15 917
e 15 863
e 15 686
e 15 26
e 16 834
e 16 697
e 16 702
e 16 571
e 16 50
e 17 700
e 17 650
e 17 254
e 17 764
e 18 783
e 18 604
e 18 356
e 19 364
e 19 550
e 19 494
e 19 317
e 20 805
e 20 959
e 20 976
e 21 466
e 21 250
e 21 558
e 21 97
e 21 740
e 21 719
e 21 488
e 21 197
e 22 770
e 22 588
e 22 308
e 22 398
e 22 871
e 23 718
e 23 63
e 23 988
e 23 286
e 23 651
e 25 682
e 25 490
e 25 881
e 26 783
e 26 168
e 26 927
e 26 926
e 28 773
e 28 398
e 28 789
e 28 749
e 28 882
e 30 710
e 30 397
e 30 333
e 30 85
e 30 38
e 30 488
e 32 562
e 32 525
e 32 791
e 32 125
e 32 179
e 37 600
e 37 252
e 37 824
e 37 514
e 37 162
e 37 488
e 37 694
e 38 182
e 38 626
e 38 117
e 39 846
e 39 100
e 39 714
e 39 760
e 40 291
e 40 456
e 40 629
e 40 740
e 40 514
e 41 965
e 41 538
e 41 280
e 42 80
e 42 313
e 42 904
e 42 651
e 42 990
e 43 600
e 43 953
e 43 716
e 44 401
e 44 742
e 44 536
e 44 142
e 45 74
e 45 961
e 45 711
e 45 327
e 47 787
e 47 204
e 47 486
e 47 398
e 47 522
e 47 996
e 48 403
e 48 460
e 48 240
e 49 624
e 49 706
e 49 485
e 49 281
e 49 569
e 50 98
e 50 720
e 50 937
e 50 314
e 50 310
e 51 188
e 51 986
e 51 114
e 51 510
e 51 74
e 51 62
e 52 726
e 52 254
e 52 916
e 52 893
e 52 940
e 52 445
e 52 545
e 53 902
e 53 912
e 53 968
e 53 131
e 53 305
e 54 813
e 54 165
e 54 172
e 54 294
e 54 867
e 54 252
e 54 485
e 54 800
e 55 932
e 55 527
e 55 86
e 55 213
e 56 150
e 56 783
e 56 702
e 56 366
e 57 214
e 57 727
e 57 762
e 58 103
e 58 349
e 58 840
e 58 588
e 59 194
e 59 813
e 59 182
e 59 662
e 59 218
e 59 979
e 62 808
e 62 164
e 62 472
e 62 315
e 62 127
e 63 117
e 63 546
e 63 337
e 63 334
e 63 832
e 63 461
e 63 703
e 64 270
e 64 837
e 64 821
e 64 628
e 64 567
e 64 991
e 64 165
e 67 702
e 67 953
e 67 635
e 67 184
e 68 285
e 69 549
e 69 76
e 69 678
e 69 211
e 69 856
e 69 781
e 70 354
e 70 590
e 70 808
e 72 903
e 72 893
e 72 998
e 73 508
e 73 945
e 73 879
e 73 106
e 73 765
e 74 728
e 74 444
e 74 704
e 74 637
e 75 223
e 75 762
e 75 219
e 76 604
e 76 366
e 76 991
e 76 155
e 76 176
e 78 470
e 78 880
e 78 654
e 78 676
e 78 226
e 79 445
e 79 404
e 79 823
e 79 807
e 80 538
e 80 875
e 80 557
e 80 237
e 80 503
e 81 102
e 81 359
e 81 122
e 81 825
e 81 166
e 81 651
e 81 208
e 81 834
e 82 168
e 82 709
e 82 424
e 82 851
e 82 859
e 82 694
e 82 482
e 82 724
e 83 426
e 83 324
e 83 290
e 84 99
e 84 848
e 84 146
e 84 734
e 84 511
e 84 362
e 85 540
e 85 736
e 85 614
e 85 799
e 85 156
e 86 174
e 86 936
e 87 986
e 87 736
e 88 205
e 88 457
e 88 542
e 90 576
e 90 761
e 90 834
e 90 194
e 91 325
e 91 181
e 91 110
e 91 405
e 91 185
e 93 601
e 93 514
e 93 108
e 93 642
e 93 473
e 93 783
e 95 472
e 95 214
e 95 309
e 95 239
e 95 597
e 97 243
e 97 957
e 97 450
e 98 744
e 98 413
e 98 912
e 99 378
e 99 313
e 99 847
e 99 215
e 100 185
e 100 784
e 100 843
e 100 666
e 100 367
e 100 263
e 100 489
e 101 781
e 101 402
e 101 758
e 101 157
e 101 500
e 101 897
e 102 622
e 102 573
e 102 574
e 102 829
e 102 291
e 102 668
e 103 510
e 103 831
e 103 817
e 103 485
e 103 950
e 106 806
e 106 356
e 106 291
e 106 120
e 107 370
e 107 686
e 107 137
e 107 439
e 108 298
e 108 642
e 108 921
e 109 182
e 109 138
e 109 439
e 109 540
e 109 444
e 110 860
e 110 383
e 110 534
e 110 942
e 111 459
e 111 900
e 111 753
e 112 650
e 112 800
e 112 438
e 112 888
e 114 426
e 114 806
e 114 787
e 114 733
e 114 965
e 114 626
e 115 863
e 115 703
e 115 649
e 116 358
e 116 356
e 116 227
e 116 310
e 116 369
e 116 289
e 117 464
e 117 329
e 119 337
e 119 486
e 119 710
e 119 125
e 119 210
e 120 219
e 120 923
e 122 820
e 122 841
e 123 622
e 123 766
e 123 687
e 123 886
e 124 968
e 124 383
e 124 451
e 124 696
e 125 586
e 125 999
e 127 534
e 127 461
e 127 832
e 127 627
e 128 223
e 128 613
e 128 957
e 128 678
e 130 859
e 130 509
e 130 908
e 130 683
e 131 548
e 131 778
e 131 589
e 131 144
e 132 719
e 132 675
e 132 362
e 133 166
e 133 633
e 133 294
e 134 381
e 134 325
e 134 576
e 134 293
e 134 940
e 135 756
e 135 395
e 135 888
e 135 203
e 137 264
e 137 934
e 137 383
e 137 317
e 137 640
e 137 473
e 137 871
e 138 932
e 138 789
e 138 330
e 138 687
e 138 914
e 140 968
e 140 897
e 140 637
e 140 204
e 140 614
e 140 431
e 140 982
e 141 964
e 141 956
e 141 442
e 142 347
e 142 942
e 142 767
e 142 748
e 143 385
e 143 346
e 143 228
e 143 160
e 143 642
e 144 533
e 144 725
e 144 665
e 145 218
e 145 853
e 145 556
e 145 549
e 145 353
e 145 847
e 146 898
e 146 674
e 147 681
e 147 502
e 147 817
e 148 324
e 148 862
e 148 918
e 148 549
e 148 957
e 148 275
e 148 682
e 149 794
e 149 719
e 149 336
e 149 945
e 149 328
e 149 821
e 150 643
e 150 223
e 150 752
e 152 358
e 152 979
e 152 244
e 152 285
e 154 840
e 154 157
e 154 244
e 154 365
e 155 954
e 155 774
e 155 673
e 156 363
e 156 922
e 157 304
e 157 709
e 157 290
e 157 671
e 157 804
e 157 718
e 158 314
e 158 744
e 158 395
e 158 458
e 159 583
e 159 578
e 159 720
e 160 229
e 160 490
e 160 430
e 160 985
e 160 558
e 162 551
e 162 719
e 164 824
e 164 855
e 164 273
e 165 416
e 165 552
e 165 262
e 165 579
e 165 842
e 165 945
e 166 873
e 167 888
e 167 640
e 167 252
e 168 346
e 168 656
e 168 339
e 168 524
e 170 940
e 170 771
e 170 501
e 170 263
e 170 654
e 170 203
e 171 786
e 171 799
e 171 770
e 172 636
e 172 297
e 172 252
e 172 876
e 172 338
e 174 497
e 174 603
e 174 499
e 174 384
e 175 588
e 175 973
e 175 232
e 176 589
e 176 691
e 176 938
e 176 414
e 176 835
e 179 492
e 179 515
e 179 629
e 180 300
e 180 915
e 180 472
e 180 548
e 180 425
e 180 401
e 180 195
e 181 711
e 181 245
e 183 882
e 183 830
e 183 508
e 184 951
e 184 991
e 185 457
e 188 781
e 188 442
e 189 522
e 189 791
e 189 851
e 189 727
e 190 649
e 190 932
e 190 703
e 190 941
e 192 511
e 192 726
e 192 427
e 192 502
e 192 472
e 192 792
e 194 970
e 194 229
e 194 828
e 195 994
e 195 760
e 195 831
e 195 281
e 195 714
e 196 298
e 196 312
e 196 635
e 196 322
e 196 618
e 196 345
e 197 793
e 197 787
e 197 947
e 197 597
e 199 635
e 199 509
e 199 676
e 199 771
e 200 503
e 200 213
e 200 730
e 200 531
e 203 627
e 203 216
e 204 908
e 204 607
e 204 477
e 205 359
e 205 409
e 205 417
e 205 300
e 206 947
e 206 258
e 206 770
e 206 550
e 207 732
e 207 697
e 207 443
e 208 881
e 208 222
e 208 737
e 208 733
e 208 718
e 209 343
e 209 854
e 209 995
e 209 871
e 210 767
e 210 542
e 211 548
e 211 810
e 211 968
e 211 257
e 211 683
e 211 837
e 212 836
e 212 795
e 212 652
e 213 609
e 214 339
e 214 535
e 214 704
e 214 618
e 215 458
e 215 855
e 215 758
e 215 541
e 216 900
e 216 939
e 217 430
e 217 853
e 217 439
e 217 935
e 217 300
e 217 354
e 217 609
e 218 843
e 219 314
e 219 705
e 219 823
e 221 356
e 221 480
e 221 716
e 221 849
e 222 428
e 222 824
e 222 728
e 223 990
e 223 345
e 223 458
e 226 815
e 227 762
e 227 333
e 227 590
e 228 963
e 228 939
e 228 294
e 229 373
e 229 557
e 229 704
e 230 551
e 230 793
e 230 378
e 231 595
e 231 836
e 231 872
e 232 848
e 232 561
e 232 351
e 233 386
e 233 691
e 233 725
e 233 271
e 233 324
e 235 763
e 235 842
e 235 447
e 236 271
e 236 811
e 236 579
e 237 622
e 237 885
e 239 317
e 239 328
e 239 809
e 239 956
e 240 882
e 240 264
e 240 917
e 240 469
e 240 610
e 240 697
e 242 448
e 242 425
e 242 420
e 242 427
e 243 882
e 243 480
e 243 897
e 243 308
e 244 828
e 244 516
e 244 472
e 244 734
e 245 872
e 245 247
e 246 548
e 246 792
e 246 467
e 246 640
e 247 508
e 247 690
e 249 627
e 249 546
e 249 787
e 249 398
e 249 670
e 250 354
e 250 515
e 250 832
e 251 496
e 251 741
e 251 352
e 252 678
e 253 909
e 253 744
e 253 985
e 253 447
e 253 797
e 254 264
e 256 793
e 256 601
e 256 569
e 256 820
e 256 298
e 257 727
e 257 909
e 257 302
e 258 610
e 258 779
e 260 271
e 260 670
e 260 508
e 261 973
e 261 365
e 261 336
e 261 431
e 261 503
e 261 578
e 261 835
e 261 633
e 262 281
e 262 599
e 262 632
e 262 817
e 262 915
e 262 532
e 262 705
e 263 400
e 263 995
e 263 751
e 263 800
e 264 453
e 267 835
e 267 397
e 267 716
e 267 458
e 267 307
e 268 917
e 268 856
e 268 736
e 270 775
e 270 950
e 270 687
e 271 328
e 271 517
e 271 902
e 271 293
e 271 976
e 272 926
e 272 448
e 272 872
e 272 932
e 273 778
e 273 304
e 273 493
e 275 551
e 275 451
e 275 817
e 275 567
e 275 934
e 279 704
e 279 472
e 279 843
e 279 582
e 280 886
e 280 594
e 280 810
e 282 414
e 282 897
e 282 309
e 282 578
e 283 428
e 283 958
e 283 610
e 283 813
e 283 622
e 285 517
e 285 657
e 285 353
e 285 867
e 286 748
e 286 444
e 286 307
e 286 859
e 287 335
e 287 957
e 287 594
e 287 435
e 287 760
e 287 618
e 289 393
e 289 783
e 290 500
e 290 601
e 290 345
e 290 367
e 291 815
e 291 604
e 291 451
e 291 439
e 291 960
e 291 573
e 291 719
e 293 797
e 293 928
e 293 773
e 294 446
e 294 576
e 294 867
e 297 924
e 297 742
e 297 991
e 297 612
e 298 750
e 300 566
e 300 853
e 300 544
e 301 493
e 301 581
e 302 937
e 302 364
e 302 642
e 302 759
e 304 391
e 304 734
e 304 965
e 305 654
e 305 982
e 305 807
e 305 650
e 306 671
e 306 771
e 306 572
e 307 416
e 307 363
e 307 711
e 307 551
e 308 691
e 308 383
e 308 645
e 309 356
e 309 714
e 309 847
e 310 754
e 312 937
e 312 489
e 313 665
e 313 356
e 314 691
e 314 881
e 315 477
e 315 645
e 315 970
e 315 957
e 315 370
e 315 460
e 316 693
e 316 478
e 316 761
e 316 436
e 318 395
e 318 390
e 318 426
e 318 806
e 322 743
e 322 997
e 322 586
e 323 678
e 323 881
e 323 473
e 324 407
e 324 500
e 324 786
e 325 502
e 327 978
e 327 805
e 327 847
e 328 833
e 328 835
e 328 769
e 328 576
e 329 687
e 329 435
e 330 467
e 330 935
e 331 963
e 331 983
e 331 888
e 331 962
e 333 578
e 334 752
e 334 781
e 335 788
e 335 535
e 335 548
e 336 450
e 336 710
e 337 898
e 338 810
e 338 445
e 339 466
e 339 778
e 339 552
e 342 697
e 342 770
e 342 877
e 343 893
e 343 399
e 343 497
e 345 938
e 345 534
e 345 516
e 346 938
e 346 957
e 346 836
e 347 481
e 347 448
e 347 637
e 348 927
e 348 558
e 348 995
e 349 402
e 349 573
e 349 961
e 351 946
e 351 820
e 351 559
e 351 473
e 352 438
e 352 493
e 353 847
e 353 998
e 354 376
e 354 807
e 354 445
e 354 547
e 354 656
e 356 454
e 356 921
e 356 363
e 356 562
e 356 673
e 358 893
e 358 532
e 358 612
e 358 871
e 359 829
e 359 798
e 361 962
e 361 750
e 361 820
e 362 365
e 362 977
e 362 486
e 363 811
e 363 715
e 363 832
e 363 975
e 364 499
e 364 477
e 364 728
e 364 501
e 365 775
e 365 586
e 365 485
e 366 715
e 366 469
e 367 480
e 369 732
e 369 977
e 369 598
e 369 956
e 369 810
e 370 443
e 372 737
e 372 587
e 372 684
e 373 571
e 373 525
e 373 833
e 373 867
e 373 934
e 375 871
e 375 629
e 375 903
e 376 644
e 376 666
e 376 490
e 377 936
e 377 743
e 377 679
e 377 664
e 378 814
e 378 991
e 381 492
e 381 961
e 381 409
e 381 990
e 382 649
e 382 736
e 382 478
e 383 720
e 384 700
e 384 500
e 384 662
e 385 710
e 385 666
e 386 622
e 386 665
e 386 628
e 386 794
e 390 846
e 390 918
e 390 909
e 391 773
e 391 394
e 393 951
e 393 405
e 394 707
e 394 770
e 395 609
e 395 641
e 396 709
e 396 635
e 396 644
e 397 926
e 397 557
e 398 399
e 399 979
e 399 612
e 400 939
e 401 764
e 401 982
e 402 705
e 403 900
e 403 513
e 404 569
e 404 719
e 404 828
e 404 968
e 404 435
e 405 780
e 405 467
e 405 830
e 407 447
e 407 973
e 409 958
e 409 508
e 409 942
e 409 883
e 409 901
e 411 862
e 411 525
e 411 607
e 413 549
e 413 835
e 413 631
e 413 421
e 414 997
e 414 524
e 414 767
e 416 891
e 416 694
e 417 954
e 417 959
e 420 753
e 420 580
e 420 613
e 421 826
e 421 907
e 421 454
e 421 523
e 422 763
e 422 826
e 422 486
e 423 443
e 423 457
e 423 830
e 424 810
e 424 711
e 425 622
e 425 644
e 425 891
e 425 841
e 426 522
e 426 469
e 426 961
e 427 918
e 427 546
e 427 540
e 427 853
e 427 922
e 428 569
e 428 786
e 428 839
e 428 862
e 430 881
e 430 569
e 430 579
e 431 935
e 432 574
e 432 604
e 432 779
e 432 975
e 432 596
e 435 600
e 435 838
e 435 534
e 436 772
e 436 833
e 438 517
e 438 860
e 439 826
e 442 881
e 443 643
e 443 706
e 443 902
e 444 656
e 444 542
e 445 599
e 445 749
e 446 636
e 446 853
e 446 742
e 446 747
e 446 732
e 447 462
e 447 968
e 447 486
e 448 450
e 448 883
e 448 710
e 448 458
e 450 781
e 450 803
e 450 811
e 451 662
e 451 923
e 451 572
e 451 657
e 453 785
e 453 571
e 454 732
e 456 986
e 456 573
e 456 954
e 456 633
e 457 714
e 459 494
e 459 540
e 459 907
e 460 959
e 460 656
e 462 881
e 462 810
e 464 655
e 464 549
e 464 693
e 466 536
e 467 602
e 467 589
e 467 838
e 468 496
e 468 934
e 468 664
e 468 931
e 468 489
e 469 882
e 469 808
e 469 616
e 470 774
e 470 652
e 470 546
e 472 940
e 473 659
e 477 511
e 477 691
e 477 530
e 478 602
e 478 814
e 478 841
e 478 994
e 478 657
e 480 955
e 480 841
e 480 630
e 480 882
e 481 742
e 481 924
e 482 489
e 482 961
e 482 550
e 482 494
e 482 873
e 482 580
e 482 937
e 483 542
e 483 769
e 483 900
e 485 640
e 485 988
e 486 983
e 486 798
e 488 784
e 488 562
e 490 923
e 490 854
e 490 821
e 490 967
e 492 855
e 492 545
e 492 750
e 496 825
e 497 853
e 497 898
e 499 855
e 499 954
e 499 562
e 500 794
e 501 668
e 501 781
e 501 652
e 501 678
e 502 603
e 503 932
e 503 540
e 503 675
e 508 549
e 508 791
e 508 999
e 510 681
e 510 596
e 511 904
e 511 889
e 513 976
e 513 561
e 515 700
e 516 742
e 516 902
e 517 962
e 517 691
e 517 809
e 517 783
e 522 705
e 523 988
e 523 856
e 523 803
e 524 960
e 524 783
e 524 652
e 525 994
e 525 817
e 525 951
e 525 770
e 527 805
e 527 922
e 530 693
e 531 852
e 531 921
e 532 852
e 532 823
e 532 733
e 532 780
e 533 982
e 533 534
e 534 775
e 534 602
e 535 979
e 535 540
e 535 541
e 536 942
e 536 783
e 538 766
e 538 809
e 538 563
e 540 565
e 540 800
e 541 909
e 542 773
e 544 671
e 544 659
e 544 691
e 544 681
e 544 632
e 545 765
e 546 986
e 546 957
e 546 873
e 547 583
e 547 798
e 547 853
e 548 759
e 548 956
e 548 877
e 549 992
e 549 852
e 550 730
e 550 813
e 550 651
e 550 732
e 551 687
e 551 668
e 551 628
e 551 644
e 552 674
e 552 608
e 555 971
e 555 940
e 555 873
e 555 754
e 556 632
e 556 665
e 556 904
e 557 616
e 557 604
e 557 811
e 558 609
e 558 950
e 559 784
e 559 652
e 561 767
e 561 721
e 562 665
e 562 710
e 563 918
e 563 624
e 565 607
e 565 824
e 566 825
e 566 645
e 566 668
e 567 717
e 567 882
e 569 730
e 569 716
e 569 866
e 569 771
e 570 641
e 570 678
e 570 836
e 572 821
e 572 886
e 573 603
e 574 736
e 574 684
e 574 842
e 578 761
e 578 590
e 578 886
e 578 917
e 578 823
e 579 595
e 580 997
e 580 946
e 581 979
e 582 915
e 582 601
e 582 955
e 583 946
e 583 869
e 583 879
e 586 741
e 586 689
e 586 783
e 587 825
e 587 689
e 587 799
e 588 604
e 590 871
e 594 937
e 595 829
e 596 800
e 596 628
e 596 736
e 596 762
e 596 982
e 597 681
e 597 917
e 597 935
e 598 845
e 598 967
e 599 994
e 601 795
e 601 607
e 601 780
e 602 911
e 602 956
e 602 624
e 602 978
e 603 883
e 604 829
e 604 962
e 607 849
e 607 786
e 608 740
e 608 963
e 608 852
e 610 947
e 611 779
e 611 686
e 611 907
e 612 934
e 612 992
e 613 978
e 614 700
e 616 696
e 618 971
e 618 798
e 619 845
e 619 846
e 619 876
e 619 862
e 619 829
e 624 882
e 624 799
e 626 939
e 627 798
e 627 944
e 627 678
e 628 728
e 629 860
e 630 654
e 630 908
e 630 781
e 631 664
e 631 662
e 631 811
e 632 927
e 632 721
e 633 873
e 636 748
e 636 889
e 636 754
e 637 867
e 637 903
e 641 888
e 641 732
e 642 691
e 643 985
e 643 786
e 644 765
e 644 860
e 644 649
e 649 727
e 649 901
e 650 673
e 651 992
e 652 950
e 652 826
e 652 882
e 653 928
e 653 975
e 653 759
e 654 836
e 654 794
e 655 814
e 656 772
e 657 714
e 659 720
e 662 909
e 662 873
e 662 889
e 664 698
e 664 937
e 665 877
e 666 959
e 666 766
e 668 679
e 670 976
e 670 852
e 671 683
e 671 807
e 673 716
e 673 717
e 674 903
e 675 976
e 676 960
e 676 936
e 676 995
e 676 813
e 678 850
e 678 931
e 678 744
e 679 885
e 679 999
e 682 810
e 684 783
e 687 717
e 687 977
e 687 873
e 689 912
e 689 973
e 689 749
e 690 825
e 690 871
e 690 702
e 691 788
e 693 935
e 693 737
e 694 958
e 696 754
e 696 808
e 698 877
e 698 967
e 700 988
e 702 918
e 703 726
e 703 724
e 703 967
e 705 716
e 705 849
e 706 780
e 706 815
e 707 826
e 707 842
e 707 877
e 709 854
e 714 763
e 715 985
e 715 916
e 715 736
e 716 750
e 716 807
e 716 926
e 716 721
e 718 767
e 724 995
e 725 851
e 727 941
e 727 885
e 727 990
e 728 794
e 730 778
e 732 746
e 732 985
e 732 837
e 734 741
e 734 860
e 734 877
e 734 961
e 734 855
e 736 931
e 740 810
e 740 803
e 740 847
e 741 962
e 741 752
e 741 837
e 743 754
e 743 759
e 743 998
e 746 804
e 746 944
e 747 854
e 747 917
e 750 840
e 751 841
e 751 769
e 752 954
e 752 846
e 753 809
e 753 850
e 754 813
e 756 835
e 756 927
e 758 834
e 759 763
e 759 959
e 760 783
e 762 821
e 767 799
e 770 960
e 770 970
e 770 992
e 770 799
e 772 991
e 772 970
e 774 863
e 775 842
e 776 924
e 776 941
e 776 848
e 779 789
e 780 871
e 784 939
e 785 792
e 785 988
e 786 797
e 787 850
e 788 855
e 789 955
e 789 810
e 791 917
e 792 996
e 793 808
e 794 813
e 795 982
e 797 876
e 798 902
e 799 850
e 804 928
e 804 891
e 806 849
e 807 839
e 811 915
e 811 862
e 813 904
e 815 850
e 820 932
e 821 832
e 825 986
e 828 875
e 828 846
e 829 886
e 831 911
e 831 975
e 831 995
e 832 837
e 832 839
e 836 902
e 836 914
e 838 986
e 839 955
e 841 866
e 845 848
e 845 926
e 847 997
e 848 921
e 849 855
e 850 976
e 851 971
e 851 947
e 853 855
e 856 900
e 866 921
e 867 939
e 869 964
e 869 922
e 871 880
e 871 963
e 871 924
e 875 985
e 876 961
e 876 973
e 876 932
e 879 911
e 886 916
e 891 985
e 893 990
e 897 958
e 898 991
e 901 956
e 903 909
e 904 915
e 907 940
e 914 957
e 922 975
e 923 953
e 924 988
e 928 979
e 932 962
e 934 967
e 934 965
e 936 983
e 937 995
e 944 951
e 950 971
e 955 978
e 959 976
e 964 968
e 994 996
e 994 999
